42	4
15	12	13	13
0	0	0	0	0	2	2	3
10	0	0	0	5	2	5	6
9	15	12	13	8	2	4	6
10	15	12	13	8	2	5	17
10	0	0	0	9	2	8	19
1	15	12	13	4	1	7
3	15	12	13	13	1	9
4	3	9	3	3	2	10	21
3	15	12	13	4	2	10	12
4	5	9	6	6	2	11	22
3	3	9	3	3	2	14	23
7	12	3	10	10	1	13
9	15	12	13	13	2	14	15
5	5	6	6	6	1	18
4	15	12	13	13	1	16
1	0	0	0	5	1	17
3	15	12	13	13	2	18	19
1	15	7	13	13	2	20	40
7	0	5	0	0	4	20	21	40	41
8	15	12	13	13	1	25
7	10	0	0	3	2	22	33
9	11	7	10	12	1	23
5	5	6	7	2	1	24
6	10	11	6	10	1	27
4	15	12	13	13	2	26	27
5	5	1	7	3	2	28	29
10	10	7	6	10	2	29	38
8	15	12	13	13	1	30
4	6	7	10	12	1	32
1	15	12	13	13	1	31
4	5	12	13	10	2	32	33
6	0	0	0	7	1	36
6	15	12	13	6	2	34	36
2	10	6	6	11	1	35
10	15	12	13	13	1	37
3	11	7	10	12	1	39
7	4	5	3	1	1	38
7	9	1	3	1	1	42
4	5	1	6	2	1	42
2	5	11	6	10	1	42
7	10	3	7	7	1	42
0	0	0	0	0	0
